NAME : random1792309082
COMMENT: random generated with id 1792309082
TYPE : TSP
DIMENSION : 20
EDGE_WEIGHT_TYPE : EUC_2D
NODE_COORD_SECTION
1 0.319684 8.258330
2 3.471104 9.052973
3 2.359811 12.213231
4 10.935163 13.942637
5 3.345444 14.841691
6 6.385302 5.659132
7 7.873027 3.572125
8 15.083746 1.742961
9 17.380204 5.066533
10 2.360874 6.769051
11 14.876573 8.610557
12 12.023885 10.614697
13 12.803459 3.997294
14 0.804589 5.837927
15 6.636328 7.766849
16 12.204851 6.956012
17 16.025180 15.675954
18 16.008985 18.384991
19 7.889185 6.944148
20 12.327628 11.234629
EOF
